c 3 - XORSAT
p cnf 40 160
-9 -15 -26 0
-9 15 26 0
9 -15 26 0
9 15 -26 0
22 31 27 0
-22 -31 27 0
-22 31 -27 0
22 -31 -27 0
-1 -5 -22 0
-1 5 22 0
1 -5 22 0
1 5 -22 0
-14 -22 -34 0
-14 22 34 0
14 -22 34 0
14 22 -34 0
37 40 30 0
-37 -40 30 0
-37 40 -30 0
37 -40 -30 0
-6 -31 -33 0
-6 31 33 0
6 -31 33 0
6 31 -33 0
-2 -15 -25 0
-2 15 25 0
2 -15 25 0
2 15 -25 0
-6 -14 -16 0
-6 14 16 0
6 -14 16 0
6 14 -16 0
-23 -12 -25 0
-23 12 25 0
23 -12 25 0
23 12 -25 0
29 11 40 0
-29 -11 40 0
-29 11 -40 0
29 -11 -40 0
-3 -13 -17 0
-3 13 17 0
3 -13 17 0
3 13 -17 0
16 28 33 0
-16 -28 33 0
-16 28 -33 0
16 -28 -33 0
-6 -34 -37 0
-6 34 37 0
6 -34 37 0
6 34 -37 0
7 12 19 0
-7 -12 19 0
-7 12 -19 0
7 -12 -19 0
7 8 11 0
-7 -8 11 0
-7 8 -11 0
7 -8 -11 0
1 32 38 0
-1 -32 38 0
-1 32 -38 0
1 -32 -38 0
-20 -21 -27 0
-20 21 27 0
20 -21 27 0
20 21 -27 0
16 24 27 0
-16 -24 27 0
-16 24 -27 0
16 -24 -27 0
-10 -12 -39 0
-10 12 39 0
10 -12 39 0
10 12 -39 0
17 20 24 0
-17 -20 24 0
-17 20 -24 0
17 -20 -24 0
-4 -28 -29 0
-4 28 29 0
4 -28 29 0
4 28 -29 0
21 31 35 0
-21 -31 35 0
-21 31 -35 0
21 -31 -35 0
4 36 39 0
-4 -36 39 0
-4 36 -39 0
4 -36 -39 0
30 32 33 0
-30 -32 33 0
-30 32 -33 0
30 -32 -33 0
13 35 37 0
-13 -35 37 0
-13 35 -37 0
13 -35 -37 0
-2 -3 -23 0
-2 3 23 0
2 -3 23 0
2 3 -23 0
4 13 18 0
-4 -13 18 0
-4 13 -18 0
4 -13 -18 0
10 32 39 0
-10 -32 39 0
-10 32 -39 0
10 -32 -39 0
35 36 38 0
-35 -36 38 0
-35 36 -38 0
35 -36 -38 0
-5 -18 -19 0
-5 18 19 0
5 -18 19 0
5 18 -19 0
-9 -26 -30 0
-9 26 30 0
9 -26 30 0
9 26 -30 0
-8 -11 -23 0
-8 11 23 0
8 -11 23 0
8 11 -23 0
-14 -28 -34 0
-14 28 34 0
14 -28 34 0
14 28 -34 0
1 3 29 0
-1 -3 29 0
-1 3 -29 0
1 -3 -29 0
-2 -20 -26 0
-2 20 26 0
2 -20 26 0
2 20 -26 0
5 8 21 0
-5 -8 21 0
-5 8 -21 0
5 -8 -21 0
15 17 19 0
-15 -17 19 0
-15 17 -19 0
15 -17 -19 0
-7 -9 -36 0
-7 9 36 0
7 -9 36 0
7 9 -36 0
10 25 40 0
-10 -25 40 0
-10 25 -40 0
10 -25 -40 0
-24 -18 -38 0
-24 18 38 0
24 -18 38 0
24 18 -38 0
